QPLIB_2171
LGQ
minimize
455 # number of variables
450 # number of constraints
0.0 # default value for linear coefficients in objective
150 # number of non-default linear coefficients in objective
1 1.0
2 1.0
3 1.0
4 1.0
5 1.0
6 1.0
7 1.0
8 1.0
9 1.0
10 1.0
11 1.0
12 1.0
13 1.0
14 1.0
15 1.0
16 1.0
17 1.0
18 1.0
19 1.0
20 1.0
21 1.0
22 1.0
23 1.0
24 1.0
25 1.0
26 1.0
27 1.0
28 1.0
29 1.0
30 1.0
31 1.0
32 1.0
33 1.0
34 1.0
35 1.0
36 1.0
37 1.0
38 1.0
39 1.0
40 1.0
41 1.0
42 1.0
43 1.0
44 1.0
45 1.0
46 1.0
47 1.0
48 1.0
49 1.0
50 1.0
51 1.0
52 1.0
53 1.0
54 1.0
55 1.0
56 1.0
57 1.0
58 1.0
59 1.0
60 1.0
61 1.0
62 1.0
63 1.0
64 1.0
65 1.0
66 1.0
67 1.0
68 1.0
69 1.0
70 1.0
71 1.0
72 1.0
73 1.0
74 1.0
75 1.0
76 1.0
77 1.0
78 1.0
79 1.0
80 1.0
81 1.0
82 1.0
83 1.0
84 1.0
85 1.0
86 1.0
87 1.0
88 1.0
89 1.0
90 1.0
91 1.0
92 1.0
93 1.0
94 1.0
95 1.0
96 1.0
97 1.0
98 1.0
99 1.0
100 1.0
101 1.0
102 1.0
103 1.0
104 1.0
105 1.0
106 1.0
107 1.0
108 1.0
109 1.0
110 1.0
111 1.0
112 1.0
113 1.0
114 1.0
115 1.0
116 1.0
117 1.0
118 1.0
119 1.0
120 1.0
121 1.0
122 1.0
123 1.0
124 1.0
125 1.0
126 1.0
127 1.0
128 1.0
129 1.0
130 1.0
131 1.0
132 1.0
133 1.0
134 1.0
135 1.0
136 1.0
137 1.0
138 1.0
139 1.0
140 1.0
141 1.0
142 1.0
143 1.0
144 1.0
145 1.0
146 1.0
147 1.0
148 1.0
149 1.0
150 1.0
0.0 # objective constant
150 # number of quadratic terms in all constraints
301 1868767344 1651076122 2.0
302 1852403556 540090479 2.0
303 1768711012 50 2.0
304 775173731 1 2.0
305 1864396660 -1349395463 2.0
306 824208238 32682 2.0
307 12321 50 2.0
308 1 1 2.0
309 1651076121 1 2.0
310 1684305508 1 2.0
311 1651076196 50 2.0
312 1932407863 1 2.0
313 1986207856 1651076122 2.0
314 1852403556 540090469 2.0
315 1768711012 16943153 2.0
316 775173731 1 2.0
317 1864396660 16960417 2.0
318 824209524 1 2.0
319 12321 50 2.0
320 1 1 2.0
321 1651076122 1 2.0
322 1852403556 1 2.0
323 1768711012 50 2.0
324 775173731 1 2.0
325 1663070068 1651076122 2.0
326 1852403556 824210800 2.0
327 1768711012 16920609 2.0
328 775173731 1 2.0
329 1864396660 16962577 2.0
330 824209529 1 2.0
331 12321 34 2.0
332 1 1 2.0
333 1 -1363556159 2.0
334 32682 1 2.0
335 16923553 50 2.0
336 1 1 2.0
337 1651076121 1 2.0
338 1667462257 1 2.0
339 1651076196 34 2.0
340 1932407863 1 2.0
341 -2147483648 1953505392 2.0
342 -2147483648 540156004 2.0
343 49 1 2.0
344 1 1 2.0
345 1 1 2.0
346 1 1 2.0
347 1842 50 2.0
348 1 1 2.0
349 1651076121 1 2.0
350 1667462257 3 2.0
351 1651076196 3 2.0
352 1932407863 3 2.0
353 1953505392 3 2.0
354 540156004 3 2.0
355 49 3 2.0
356 3 1 2.0
357 3 1 2.0
358 3 1 2.0
359 50 3 2.0
360 3 1 2.0
361 1651076121 3 2.0
362 1668051310 3 2.0
363 1651076196 3 2.0
364 1932407863 3 2.0
365 1902977136 3 2.0
366 540156013 3 2.0
367 49 3 2.0
368 3 1 2.0
369 3 1 2.0
370 3 1 2.0
371 50 3 2.0
372 3 1 2.0
373 1651076121 3 2.0
374 1684956020 3 2.0
375 1651076196 3 2.0
376 1932407863 3 2.0
377 1668489328 3 2.0
378 540090479 3 2.0
379 49 3 2.0
380 3 1 2.0
381 3 1 2.0
382 3 1 2.0
383 50 3 2.0
384 3 1 2.0
385 1651076122 3 2.0
386 1852403556 3 2.0
387 1768711012 3 2.0
388 775173731 3 2.0
389 1931505524 3 2.0
390 824209508 3 2.0
391 12577 3 2.0
392 3 1 2.0
393 3 1 2.0
394 3 1 2.0
395 50 3 2.0
396 3 1 2.0
397 1651076121 3 2.0
398 1668050548 3 2.0
399 1651076196 3 2.0
400 1932407863 3 2.0
401 1853038704 3 2.0
402 540156013 3 2.0
403 50 3 2.0
404 3 1 2.0
405 3 1 2.0
406 3 1 2.0
407 50 3 2.0
408 3 1 2.0
409 1651076122 3 2.0
410 1852403556 3 2.0
411 1768711012 3 2.0
412 775173731 3 2.0
413 1864396660 3 2.0
414 824209524 3 2.0
415 12321 3 2.0
416 3 1 2.0
417 3 1 2.0
418 3 1 2.0
419 50 3 2.0
420 3 1 2.0
421 1651076121 3 2.0
422 1668115572 3 2.0
423 1651076196 3 2.0
424 1932407863 3 2.0
425 1819484272 3 2.0
426 540090478 3 2.0
427 49 3 2.0
428 3 1 2.0
429 3 1 2.0
430 3 1 2.0
431 50 3 2.0
432 3 1 2.0
433 1651076121 3 2.0
434 1668837497 3 2.0
435 1651076196 3 2.0
436 1932407863 3 2.0
437 1886920816 3 2.0
438 540090489 3 2.0
439 49 3 2.0
440 3 1 2.0
441 3 1 2.0
442 3 1 2.0
443 98 3 2.0
444 3 1 2.0
445 1869098829 3 2.0
446 1865377134 3 2.0
447 1835627633 3 2.0
448 2053255018 3 2.0
449 1702194535 3 2.0
450 1815044717 3 2.0
1200 # number of linear terms in all constraints
1 151 -5.1
1 152 -3.5
1 153 -1.4
1 154 -0.2
1 155 1.0
1 156 -1.0
2 151 -4.9
2 152 -3.0
2 153 -1.4
2 154 -0.2
2 155 1.0
2 157 -1.0
3 151 -4.7
3 152 -3.2
3 153 -1.3
3 154 -0.2
3 155 1.0
3 158 -1.0
4 151 -4.6
4 152 -3.1
4 153 -1.5
4 154 -0.2
4 155 1.0
4 159 -1.0
5 151 -5.0
5 152 -3.6
5 153 -1.4
5 154 -0.2
5 155 1.0
5 160 -1.0
6 151 -5.4
6 152 -3.9
6 153 -1.7
6 154 -0.4
6 155 1.0
6 161 -1.0
7 151 -4.6
7 152 -3.4
7 153 -1.4
7 154 -0.3
7 155 1.0
7 162 -1.0
8 151 -5.0
8 152 -3.4
8 153 -1.5
8 154 -0.2
8 155 1.0
8 163 -1.0
9 151 -4.4
9 152 -2.9
9 153 -1.4
9 154 -0.2
9 155 1.0
9 164 -1.0
10 151 -4.9
10 152 -3.1
10 153 -1.5
10 154 -0.1
10 155 1.0
10 165 -1.0
11 151 -5.4
11 152 -3.7
11 153 -1.5
11 154 -0.2
11 155 1.0
11 166 -1.0
12 151 -4.8
12 152 -3.4
12 153 -1.6
12 154 -0.2
12 155 1.0
12 167 -1.0
13 151 -4.8
13 152 -3.0
13 153 -1.4
13 154 -0.1
13 155 1.0
13 168 -1.0
14 151 -4.3
14 152 -3.0
14 153 -1.1
14 154 -0.1
14 155 1.0
14 169 -1.0
15 151 -5.8
15 152 -4.0
15 153 -1.2
15 154 -0.2
15 155 1.0
15 170 -1.0
16 151 -5.7
16 152 -4.4
16 153 -1.5
16 154 -0.4
16 155 1.0
16 171 -1.0
17 151 -5.4
17 152 -3.9
17 153 -1.3
17 154 -0.4
17 155 1.0
17 172 -1.0
18 151 -5.1
18 152 -3.5
18 153 -1.4
18 154 -0.3
18 155 1.0
18 173 -1.0
19 151 -5.7
19 152 -3.8
19 153 -1.7
19 154 -0.3
19 155 1.0
19 174 -1.0
20 151 -5.1
20 152 -3.8
20 153 -1.5
20 154 -0.3
20 155 1.0
20 175 -1.0
21 151 -5.4
21 152 -3.4
21 153 -1.7
21 154 -0.2
21 155 1.0
21 176 -1.0
22 151 -5.1
22 152 -3.7
22 153 -1.5
22 154 -0.4
22 155 1.0
22 177 -1.0
23 151 -4.6
23 152 -3.6
23 153 -1.0
23 154 -0.2
23 155 1.0
23 178 -1.0
24 151 -5.1
24 152 -3.3
24 153 -1.7
24 154 -0.5
24 155 1.0
24 179 -1.0
25 151 -4.8
25 152 -3.4
25 153 -1.9
25 154 -0.2
25 155 1.0
25 180 -1.0
26 151 -5.0
26 152 -3.0
26 153 -1.6
26 154 -0.2
26 155 1.0
26 181 -1.0
27 151 -5.0
27 152 -3.4
27 153 -1.6
27 154 -0.4
27 155 1.0
27 182 -1.0
28 151 -5.2
28 152 -3.5
28 153 -1.5
28 154 -0.2
28 155 1.0
28 183 -1.0
29 151 -5.2
29 152 -3.4
29 153 -1.4
29 154 -0.2
29 155 1.0
29 184 -1.0
30 151 -4.7
30 152 -3.2
30 153 -1.6
30 154 -0.2
30 155 1.0
30 185 -1.0
31 151 -4.8
31 152 -3.1
31 153 -1.6
31 154 -0.2
31 155 1.0
31 186 -1.0
32 151 -5.4
32 152 -3.4
32 153 -1.5
32 154 -0.4
32 155 1.0
32 187 -1.0
33 151 -5.2
33 152 -4.1
33 153 -1.5
33 154 -0.1
33 155 1.0
33 188 -1.0
34 151 -5.5
34 152 -4.2
34 153 -1.4
34 154 -0.2
34 155 1.0
34 189 -1.0
35 151 -4.9
35 152 -3.1
35 153 -1.5
35 154 -0.1
35 155 1.0
35 190 -1.0
36 151 -5.0
36 152 -3.2
36 153 -1.2
36 154 -0.2
36 155 1.0
36 191 -1.0
37 151 -5.5
37 152 -3.5
37 153 -1.3
37 154 -0.2
37 155 1.0
37 192 -1.0
38 151 -4.9
38 152 -3.1
38 153 -1.5
38 154 -0.1
38 155 1.0
38 193 -1.0
39 151 -4.4
39 152 -3.0
39 153 -1.3
39 154 -0.2
39 155 1.0
39 194 -1.0
40 151 -5.1
40 152 -3.4
40 153 -1.5
40 154 -0.2
40 155 1.0
40 195 -1.0
41 151 -5.0
41 152 -3.5
41 153 -1.3
41 154 -0.3
41 155 1.0
41 196 -1.0
42 151 -4.5
42 152 -2.3
42 153 -1.3
42 154 -0.3
42 155 1.0
42 197 -1.0
43 151 -4.4
43 152 -3.2
43 153 -1.3
43 154 -0.2
43 155 1.0
43 198 -1.0
44 151 -5.0
44 152 -3.5
44 153 -1.6
44 154 -0.6
44 155 1.0
44 199 -1.0
45 151 -5.1
45 152 -3.8
45 153 -1.9
45 154 -0.4
45 155 1.0
45 200 -1.0
46 151 -4.8
46 152 -3.0
46 153 -1.4
46 154 -0.3
46 155 1.0
46 201 -1.0
47 151 -5.1
47 152 -3.8
47 153 -1.6
47 154 -0.2
47 155 1.0
47 202 -1.0
48 151 -4.6
48 152 -3.2
48 153 -1.4
48 154 -0.2
48 155 1.0
48 203 -1.0
49 151 -5.3
49 152 -3.7
49 153 -1.5
49 154 -0.2
49 155 1.0
49 204 -1.0
50 151 -5.0
50 152 -3.3
50 153 -1.4
50 154 -0.2
50 155 1.0
50 205 -1.0
51 151 7.0
51 152 3.2
51 153 4.7
51 154 1.4
51 155 -1.0
51 206 -1.0
52 151 6.4
52 152 3.2
52 153 4.5
52 154 1.5
52 155 -1.0
52 207 -1.0
53 151 6.9
53 152 3.1
53 153 4.9
53 154 1.5
53 155 -1.0
53 208 -1.0
54 151 5.5
54 152 2.3
54 153 4.0
54 154 1.3
54 155 -1.0
54 209 -1.0
55 151 6.5
55 152 2.8
55 153 4.6
55 154 1.5
55 155 -1.0
55 210 -1.0
56 151 5.7
56 152 2.8
56 153 4.5
56 154 1.3
56 155 -1.0
56 211 -1.0
57 151 6.3
57 152 3.3
57 153 4.7
57 154 1.6
57 155 -1.0
57 212 -1.0
58 151 4.9
58 152 2.4
58 153 3.3
58 154 1.0
58 155 -1.0
58 213 -1.0
59 151 6.6
59 152 2.9
59 153 4.6
59 154 1.3
59 155 -1.0
59 214 -1.0
60 151 5.2
60 152 2.7
60 153 3.9
60 154 1.4
60 155 -1.0
60 215 -1.0
61 151 5.0
61 152 2.0
61 153 3.5
61 154 1.0
61 155 -1.0
61 216 -1.0
62 151 5.9
62 152 3.0
62 153 4.2
62 154 1.5
62 155 -1.0
62 217 -1.0
63 151 6.0
63 152 2.2
63 153 4.0
63 154 1.0
63 155 -1.0
63 218 -1.0
64 151 6.1
64 152 2.9
64 153 4.7
64 154 1.4
64 155 -1.0
64 219 -1.0
65 151 5.6
65 152 2.9
65 153 3.6
65 154 1.3
65 155 -1.0
65 220 -1.0
66 151 6.7
66 152 3.1
66 153 4.4
66 154 1.4
66 155 -1.0
66 221 -1.0
67 151 5.6
67 152 3.0
67 153 4.5
67 154 1.5
67 155 -1.0
67 222 -1.0
68 151 5.8
68 152 2.7
68 153 4.1
68 154 1.0
68 155 -1.0
68 223 -1.0
69 151 6.2
69 152 2.2
69 153 4.5
69 154 1.5
69 155 -1.0
69 224 -1.0
70 151 5.6
70 152 2.5
70 153 3.9
70 154 1.1
70 155 -1.0
70 225 -1.0
71 151 5.9
71 152 3.2
71 153 4.8
71 154 1.8
71 155 -1.0
71 226 -1.0
72 151 6.1
72 152 2.8
72 153 4.0
72 154 1.3
72 155 -1.0
72 227 -1.0
73 151 6.3
73 152 2.5
73 153 4.9
73 154 1.5
73 155 -1.0
73 228 -1.0
74 151 6.1
74 152 2.8
74 153 4.7
74 154 1.2
74 155 -1.0
74 229 -1.0
75 151 6.4
75 152 2.9
75 153 4.3
75 154 1.3
75 155 -1.0
75 230 -1.0
76 151 6.6
76 152 3.0
76 153 4.4
76 154 1.4
76 155 -1.0
76 231 -1.0
77 151 6.8
77 152 2.8
77 153 4.8
77 154 1.4
77 155 -1.0
77 232 -1.0
78 151 6.7
78 152 3.0
78 153 5.0
78 154 1.7
78 155 -1.0
78 233 -1.0
79 151 6.0
79 152 2.9
79 153 4.5
79 154 1.5
79 155 -1.0
79 234 -1.0
80 151 5.7
80 152 2.6
80 153 3.5
80 154 1.0
80 155 -1.0
80 235 -1.0
81 151 5.5
81 152 2.4
81 153 3.8
81 154 1.1
81 155 -1.0
81 236 -1.0
82 151 5.5
82 152 2.4
82 153 3.7
82 154 1.0
82 155 -1.0
82 237 -1.0
83 151 5.8
83 152 2.7
83 153 3.9
83 154 1.2
83 155 -1.0
83 238 -1.0
84 151 6.0
84 152 2.7
84 153 5.1
84 154 1.6
84 155 -1.0
84 239 -1.0
85 151 5.4
85 152 3.0
85 153 4.5
85 154 1.5
85 155 -1.0
85 240 -1.0
86 151 6.0
86 152 3.4
86 153 4.5
86 154 1.6
86 155 -1.0
86 241 -1.0
87 151 6.7
87 152 3.1
87 153 4.7
87 154 1.5
87 155 -1.0
87 242 -1.0
88 151 6.3
88 152 2.3
88 153 4.4
88 154 1.3
88 155 -1.0
88 243 -1.0
89 151 5.6
89 152 3.0
89 153 4.1
89 154 1.3
89 155 -1.0
89 244 -1.0
90 151 5.5
90 152 2.5
90 153 4.0
90 154 1.3
90 155 -1.0
90 245 -1.0
91 151 5.5
91 152 2.6
91 153 4.4
91 154 1.2
91 155 -1.0
91 246 -1.0
92 151 6.1
92 152 3.0
92 153 4.6
92 154 1.4
92 155 -1.0
92 247 -1.0
93 151 5.8
93 152 2.6
93 153 4.0
93 154 1.2
93 155 -1.0
93 248 -1.0
94 151 5.0
94 152 2.3
94 153 3.3
94 154 1.0
94 155 -1.0
94 249 -1.0
95 151 5.6
95 152 2.7
95 153 4.2
95 154 1.3
95 155 -1.0
95 250 -1.0
96 151 5.7
96 152 3.0
96 153 4.2
96 154 1.2
96 155 -1.0
96 251 -1.0
97 151 5.7
97 152 2.9
97 153 4.2
97 154 1.3
97 155 -1.0
97 252 -1.0
98 151 6.2
98 152 2.9
98 153 4.3
98 154 1.3
98 155 -1.0
98 253 -1.0
99 151 5.1
99 152 2.5
99 153 3.0
99 154 1.1
99 155 -1.0
99 254 -1.0
100 151 5.7
100 152 2.8
100 153 4.1
100 154 1.3
100 155 -1.0
100 255 -1.0
101 151 -6.3
101 152 -3.3
101 153 -6.0
101 154 -2.5
101 155 1.0
101 256 -1.0
102 151 -5.8
102 152 -2.7
102 153 -5.1
102 154 -1.9
102 155 1.0
102 257 -1.0
103 151 -7.1
103 152 -3.0
103 153 -5.9
103 154 -2.1
103 155 1.0
103 258 -1.0
104 151 -6.3
104 152 -2.9
104 153 -5.6
104 154 -1.8
104 155 1.0
104 259 -1.0
105 151 -6.5
105 152 -3.0
105 153 -5.8
105 154 -2.2
105 155 1.0
105 260 -1.0
106 151 -7.6
106 152 -3.0
106 153 -6.6
106 154 -2.1
106 155 1.0
106 261 -1.0
107 151 -4.9
107 152 -2.5
107 153 -4.5
107 154 -1.7
107 155 1.0
107 262 -1.0
108 151 -7.3
108 152 -2.9
108 153 -6.3
108 154 -1.8
108 155 1.0
108 263 -1.0
109 151 -6.7
109 152 -2.5
109 153 -5.8
109 154 -1.8
109 155 1.0
109 264 -1.0
110 151 -7.2
110 152 -3.6
110 153 -6.1
110 154 -2.5
110 155 1.0
110 265 -1.0
111 151 -6.5
111 152 -3.2
111 153 -5.1
111 154 -2.0
111 155 1.0
111 266 -1.0
112 151 -6.4
112 152 -2.7
112 153 -5.3
112 154 -1.9
112 155 1.0
112 267 -1.0
113 151 -6.8
113 152 -3.0
113 153 -5.5
113 154 -2.1
113 155 1.0
113 268 -1.0
114 151 -5.7
114 152 -2.5
114 153 -5.0
114 154 -2.0
114 155 1.0
114 269 -1.0
115 151 -5.8
115 152 -2.8
115 153 -5.1
115 154 -2.4
115 155 1.0
115 270 -1.0
116 151 -6.4
116 152 -3.2
116 153 -5.3
116 154 -2.3
116 155 1.0
116 271 -1.0
117 151 -6.5
117 152 -3.0
117 153 -5.5
117 154 -1.8
117 155 1.0
117 272 -1.0
118 151 -7.7
118 152 -3.8
118 153 -6.7
118 154 -2.2
118 155 1.0
118 273 -1.0
119 151 -7.7
119 152 -2.6
119 153 -6.9
119 154 -2.3
119 155 1.0
119 274 -1.0
120 151 -6.0
120 152 -2.2
120 153 -5.0
120 154 -1.5
120 155 1.0
120 275 -1.0
121 151 -6.9
121 152 -3.2
121 153 -5.7
121 154 -2.3
121 155 1.0
121 276 -1.0
122 151 -5.6
122 152 -2.8
122 153 -4.9
122 154 -2.0
122 155 1.0
122 277 -1.0
123 151 -7.7
123 152 -2.8
123 153 -6.7
123 154 -2.0
123 155 1.0
123 278 -1.0
124 151 -6.3
124 152 -2.7
124 153 -4.9
124 154 -1.8
124 155 1.0
124 279 -1.0
125 151 -6.7
125 152 -3.3
125 153 -5.7
125 154 -2.1
125 155 1.0
125 280 -1.0
126 151 -7.2
126 152 -3.2
126 153 -6.0
126 154 -1.8
126 155 1.0
126 281 -1.0
127 151 -6.2
127 152 -2.8
127 153 -4.8
127 154 -1.8
127 155 1.0
127 282 -1.0
128 151 -6.1
128 152 -3.0
128 153 -4.9
128 154 -1.8
128 155 1.0
128 283 -1.0
129 151 -6.4
129 152 -2.8
129 153 -5.6
129 154 -2.1
129 155 1.0
129 284 -1.0
130 151 -7.2
130 152 -3.0
130 153 -5.8
130 154 -1.6
130 155 1.0
130 285 -1.0
131 151 -7.4
131 152 -2.8
131 153 -6.1
131 154 -1.9
131 155 1.0
131 286 -1.0
132 151 -7.9
132 152 -3.8
132 153 -6.4
132 154 -2.0
132 155 1.0
132 287 -1.0
133 151 -6.4
133 152 -2.8
133 153 -5.6
133 154 -2.2
133 155 1.0
133 288 -1.0
134 151 -6.3
134 152 -2.8
134 153 -5.1
134 154 -1.5
134 155 1.0
134 289 -1.0
135 151 -6.1
135 152 -2.6
135 153 -5.6
135 154 -1.4
135 155 1.0
135 290 -1.0
136 151 -7.7
136 152 -3.0
136 153 -6.1
136 154 -2.3
136 155 1.0
136 291 -1.0
137 151 -6.3
137 152 -3.4
137 153 -5.6
137 154 -2.4
137 155 1.0
137 292 -1.0
138 151 -6.4
138 152 -3.1
138 153 -5.5
138 154 -1.8
138 155 1.0
138 293 -1.0
139 151 -6.0
139 152 -3.0
139 153 -4.8
139 154 -1.8
139 155 1.0
139 294 -1.0
140 151 -6.9
140 152 -3.1
140 153 -5.4
140 154 -2.1
140 155 1.0
140 295 -1.0
141 151 -6.7
141 152 -3.1
141 153 -5.6
141 154 -2.4
141 155 1.0
141 296 -1.0
142 151 -6.9
142 152 -3.1
142 153 -5.1
142 154 -2.3
142 155 1.0
142 297 -1.0
143 151 -5.8
143 152 -2.7
143 153 -5.1
143 154 -1.9
143 155 1.0
143 298 -1.0
144 151 -6.8
144 152 -3.2
144 153 -5.9
144 154 -2.3
144 155 1.0
144 299 -1.0
145 151 -6.7
145 152 -3.3
145 153 -5.7
145 154 -2.5
145 155 1.0
145 300 -1.0
146 151 -6.7
146 152 -3.0
146 153 -5.2
146 154 -2.3
146 155 1.0
146 301 -1.0
147 151 -6.3
147 152 -2.5
147 153 -5.0
147 154 -1.9
147 155 1.0
147 302 -1.0
148 151 -6.5
148 152 -3.0
148 153 -5.2
148 154 -2.0
148 155 1.0
148 303 -1.0
149 151 -6.2
149 152 -3.4
149 153 -5.4
149 154 -2.3
149 155 1.0
149 304 -1.0
150 151 -5.9
150 152 -3.0
150 153 -5.1
150 154 -1.8
150 155 1.0
150 305 -1.0
151 1 -1.0
151 306 -1.0
152 2 -1.0
152 307 -1.0
153 3 -1.0
153 308 -1.0
154 4 -1.0
154 309 -1.0
155 5 -1.0
155 310 -1.0
156 6 -1.0
156 311 -1.0
157 7 -1.0
157 312 -1.0
158 8 -1.0
158 313 -1.0
159 9 -1.0
159 314 -1.0
160 10 -1.0
160 315 -1.0
161 11 -1.0
161 316 -1.0
162 12 -1.0
162 317 -1.0
163 13 -1.0
163 318 -1.0
164 14 -1.0
164 319 -1.0
165 15 -1.0
165 320 -1.0
166 16 -1.0
166 321 -1.0
167 17 -1.0
167 322 -1.0
168 18 -1.0
168 323 -1.0
169 19 -1.0
169 324 -1.0
170 20 -1.0
170 325 -1.0
171 21 -1.0
171 326 -1.0
172 22 -1.0
172 327 -1.0
173 23 -1.0
173 328 -1.0
174 24 -1.0
174 329 -1.0
175 25 -1.0
175 330 -1.0
176 26 -1.0
176 331 -1.0
177 27 -1.0
177 332 -1.0
178 28 -1.0
178 333 -1.0
179 29 -1.0
179 334 -1.0
180 30 -1.0
180 335 -1.0
181 31 -1.0
181 336 -1.0
182 32 -1.0
182 337 -1.0
183 33 -1.0
183 338 -1.0
184 34 -1.0
184 339 -1.0
185 35 -1.0
185 340 -1.0
186 36 -1.0
186 341 -1.0
187 37 -1.0
187 342 -1.0
188 38 -1.0
188 343 -1.0
189 39 -1.0
189 344 -1.0
190 40 -1.0
190 345 -1.0
191 41 -1.0
191 346 -1.0
192 42 -1.0
192 347 -1.0
193 43 -1.0
193 348 -1.0
194 44 -1.0
194 349 -1.0
195 45 -1.0
195 350 -1.0
196 46 -1.0
196 351 -1.0
197 47 -1.0
197 352 -1.0
198 48 -1.0
198 353 -1.0
199 49 -1.0
199 354 -1.0
200 50 -1.0
200 355 -1.0
201 51 -1.0
201 356 -1.0
202 52 -1.0
202 357 -1.0
203 53 -1.0
203 358 -1.0
204 54 -1.0
204 359 -1.0
205 55 -1.0
205 360 -1.0
206 56 -1.0
206 361 -1.0
207 57 -1.0
207 362 -1.0
208 58 -1.0
208 363 -1.0
209 59 -1.0
209 364 -1.0
210 60 -1.0
210 365 -1.0
211 61 -1.0
211 366 -1.0
212 62 -1.0
212 367 -1.0
213 63 -1.0
213 368 -1.0
214 64 -1.0
214 369 -1.0
215 65 -1.0
215 370 -1.0
216 66 -1.0
216 371 -1.0
217 67 -1.0
217 372 -1.0
218 68 -1.0
218 373 -1.0
219 69 -1.0
219 374 -1.0
220 70 -1.0
220 375 -1.0
221 71 -1.0
221 376 -1.0
222 72 -1.0
222 377 -1.0
223 73 -1.0
223 378 -1.0
224 74 -1.0
224 379 -1.0
225 75 -1.0
225 380 -1.0
226 76 -1.0
226 381 -1.0
227 77 -1.0
227 382 -1.0
228 78 -1.0
228 383 -1.0
229 79 -1.0
229 384 -1.0
230 80 -1.0
230 385 -1.0
231 81 -1.0
231 386 -1.0
232 82 -1.0
232 387 -1.0
233 83 -1.0
233 388 -1.0
234 84 -1.0
234 389 -1.0
235 85 -1.0
235 390 -1.0
236 86 -1.0
236 391 -1.0
237 87 -1.0
237 392 -1.0
238 88 -1.0
238 393 -1.0
239 89 -1.0
239 394 -1.0
240 90 -1.0
240 395 -1.0
241 91 -1.0
241 396 -1.0
242 92 -1.0
242 397 -1.0
243 93 -1.0
243 398 -1.0
244 94 -1.0
244 399 -1.0
245 95 -1.0
245 400 -1.0
246 96 -1.0
246 401 -1.0
247 97 -1.0
247 402 -1.0
248 98 -1.0
248 403 -1.0
249 99 -1.0
249 404 -1.0
250 100 -1.0
250 405 -1.0
251 101 -1.0
251 406 -1.0
252 102 -1.0
252 407 -1.0
253 103 -1.0
253 408 -1.0
254 104 -1.0
254 409 -1.0
255 105 -1.0
255 410 -1.0
256 106 -1.0
256 411 -1.0
257 107 -1.0
257 412 -1.0
258 108 -1.0
258 413 -1.0
259 109 -1.0
259 414 -1.0
260 110 -1.0
260 415 -1.0
261 111 -1.0
261 416 -1.0
262 112 -1.0
262 417 -1.0
263 113 -1.0
263 418 -1.0
264 114 -1.0
264 419 -1.0
265 115 -1.0
265 420 -1.0
266 116 -1.0
266 421 -1.0
267 117 -1.0
267 422 -1.0
268 118 -1.0
268 423 -1.0
269 119 -1.0
269 424 -1.0
270 120 -1.0
270 425 -1.0
271 121 -1.0
271 426 -1.0
272 122 -1.0
272 427 -1.0
273 123 -1.0
273 428 -1.0
274 124 -1.0
274 429 -1.0
275 125 -1.0
275 430 -1.0
276 126 -1.0
276 431 -1.0
277 127 -1.0
277 432 -1.0
278 128 -1.0
278 433 -1.0
279 129 -1.0
279 434 -1.0
280 130 -1.0
280 435 -1.0
281 131 -1.0
281 436 -1.0
282 132 -1.0
282 437 -1.0
283 133 -1.0
283 438 -1.0
284 134 -1.0
284 439 -1.0
285 135 -1.0
285 440 -1.0
286 136 -1.0
286 441 -1.0
287 137 -1.0
287 442 -1.0
288 138 -1.0
288 443 -1.0
289 139 -1.0
289 444 -1.0
290 140 -1.0
290 445 -1.0
291 141 -1.0
291 446 -1.0
292 142 -1.0
292 447 -1.0
293 143 -1.0
293 448 -1.0
294 144 -1.0
294 449 -1.0
295 145 -1.0
295 450 -1.0
296 146 -1.0
296 451 -1.0
297 147 -1.0
297 452 -1.0
298 148 -1.0
298 453 -1.0
299 149 -1.0
299 454 -1.0
300 150 -1.0
300 455 -1.0
1.79769313486232E+308 # value for infinity
0.0 # default left-hand-side value
300 # number of non-default left-hand-sides
1 -1.79769313486232E+308
2 -1.79769313486232E+308
3 -1.79769313486232E+308
4 -1.79769313486232E+308
5 -1.79769313486232E+308
6 -1.79769313486232E+308
7 -1.79769313486232E+308
8 -1.79769313486232E+308
9 -1.79769313486232E+308
10 -1.79769313486232E+308
11 -1.79769313486232E+308
12 -1.79769313486232E+308
13 -1.79769313486232E+308
14 -1.79769313486232E+308
15 -1.79769313486232E+308
16 -1.79769313486232E+308
17 -1.79769313486232E+308
18 -1.79769313486232E+308
19 -1.79769313486232E+308
20 -1.79769313486232E+308
21 -1.79769313486232E+308
22 -1.79769313486232E+308
23 -1.79769313486232E+308
24 -1.79769313486232E+308
25 -1.79769313486232E+308
26 -1.79769313486232E+308
27 -1.79769313486232E+308
28 -1.79769313486232E+308
29 -1.79769313486232E+308
30 -1.79769313486232E+308
31 -1.79769313486232E+308
32 -1.79769313486232E+308
33 -1.79769313486232E+308
34 -1.79769313486232E+308
35 -1.79769313486232E+308
36 -1.79769313486232E+308
37 -1.79769313486232E+308
38 -1.79769313486232E+308
39 -1.79769313486232E+308
40 -1.79769313486232E+308
41 -1.79769313486232E+308
42 -1.79769313486232E+308
43 -1.79769313486232E+308
44 -1.79769313486232E+308
45 -1.79769313486232E+308
46 -1.79769313486232E+308
47 -1.79769313486232E+308
48 -1.79769313486232E+308
49 -1.79769313486232E+308
50 -1.79769313486232E+308
51 -1.79769313486232E+308
52 -1.79769313486232E+308
53 -1.79769313486232E+308
54 -1.79769313486232E+308
55 -1.79769313486232E+308
56 -1.79769313486232E+308
57 -1.79769313486232E+308
58 -1.79769313486232E+308
59 -1.79769313486232E+308
60 -1.79769313486232E+308
61 -1.79769313486232E+308
62 -1.79769313486232E+308
63 -1.79769313486232E+308
64 -1.79769313486232E+308
65 -1.79769313486232E+308
66 -1.79769313486232E+308
67 -1.79769313486232E+308
68 -1.79769313486232E+308
69 -1.79769313486232E+308
70 -1.79769313486232E+308
71 -1.79769313486232E+308
72 -1.79769313486232E+308
73 -1.79769313486232E+308
74 -1.79769313486232E+308
75 -1.79769313486232E+308
76 -1.79769313486232E+308
77 -1.79769313486232E+308
78 -1.79769313486232E+308
79 -1.79769313486232E+308
80 -1.79769313486232E+308
81 -1.79769313486232E+308
82 -1.79769313486232E+308
83 -1.79769313486232E+308
84 -1.79769313486232E+308
85 -1.79769313486232E+308
86 -1.79769313486232E+308
87 -1.79769313486232E+308
88 -1.79769313486232E+308
89 -1.79769313486232E+308
90 -1.79769313486232E+308
91 -1.79769313486232E+308
92 -1.79769313486232E+308
93 -1.79769313486232E+308
94 -1.79769313486232E+308
95 -1.79769313486232E+308
96 -1.79769313486232E+308
97 -1.79769313486232E+308
98 -1.79769313486232E+308
99 -1.79769313486232E+308
100 -1.79769313486232E+308
101 -1.79769313486232E+308
102 -1.79769313486232E+308
103 -1.79769313486232E+308
104 -1.79769313486232E+308
105 -1.79769313486232E+308
106 -1.79769313486232E+308
107 -1.79769313486232E+308
108 -1.79769313486232E+308
109 -1.79769313486232E+308
110 -1.79769313486232E+308
111 -1.79769313486232E+308
112 -1.79769313486232E+308
113 -1.79769313486232E+308
114 -1.79769313486232E+308
115 -1.79769313486232E+308
116 -1.79769313486232E+308
117 -1.79769313486232E+308
118 -1.79769313486232E+308
119 -1.79769313486232E+308
120 -1.79769313486232E+308
121 -1.79769313486232E+308
122 -1.79769313486232E+308
123 -1.79769313486232E+308
124 -1.79769313486232E+308
125 -1.79769313486232E+308
126 -1.79769313486232E+308
127 -1.79769313486232E+308
128 -1.79769313486232E+308
129 -1.79769313486232E+308
130 -1.79769313486232E+308
131 -1.79769313486232E+308
132 -1.79769313486232E+308
133 -1.79769313486232E+308
134 -1.79769313486232E+308
135 -1.79769313486232E+308
136 -1.79769313486232E+308
137 -1.79769313486232E+308
138 -1.79769313486232E+308
139 -1.79769313486232E+308
140 -1.79769313486232E+308
141 -1.79769313486232E+308
142 -1.79769313486232E+308
143 -1.79769313486232E+308
144 -1.79769313486232E+308
145 -1.79769313486232E+308
146 -1.79769313486232E+308
147 -1.79769313486232E+308
148 -1.79769313486232E+308
149 -1.79769313486232E+308
150 -1.79769313486232E+308
151 -1.0
152 -1.0
153 -1.0
154 -1.0
155 -1.0
156 -1.0
157 -1.0
158 -1.0
159 -1.0
160 -1.0
161 -1.0
162 -1.0
163 -1.0
164 -1.0
165 -1.0
166 -1.0
167 -1.0
168 -1.0
169 -1.0
170 -1.0
171 -1.0
172 -1.0
173 -1.0
174 -1.0
175 -1.0
176 -1.0
177 -1.0
178 -1.0
179 -1.0
180 -1.0
181 -1.0
182 -1.0
183 -1.0
184 -1.0
185 -1.0
186 -1.0
187 -1.0
188 -1.0
189 -1.0
190 -1.0
191 -1.0
192 -1.0
193 -1.0
194 -1.0
195 -1.0
196 -1.0
197 -1.0
198 -1.0
199 -1.0
200 -1.0
201 -1.0
202 -1.0
203 -1.0
204 -1.0
205 -1.0
206 -1.0
207 -1.0
208 -1.0
209 -1.0
210 -1.0
211 -1.0
212 -1.0
213 -1.0
214 -1.0
215 -1.0
216 -1.0
217 -1.0
218 -1.0
219 -1.0
220 -1.0
221 -1.0
222 -1.0
223 -1.0
224 -1.0
225 -1.0
226 -1.0
227 -1.0
228 -1.0
229 -1.0
230 -1.0
231 -1.0
232 -1.0
233 -1.0
234 -1.0
235 -1.0
236 -1.0
237 -1.0
238 -1.0
239 -1.0
240 -1.0
241 -1.0
242 -1.0
243 -1.0
244 -1.0
245 -1.0
246 -1.0
247 -1.0
248 -1.0
249 -1.0
250 -1.0
251 -1.0
252 -1.0
253 -1.0
254 -1.0
255 -1.0
256 -1.0
257 -1.0
258 -1.0
259 -1.0
260 -1.0
261 -1.0
262 -1.0
263 -1.0
264 -1.0
265 -1.0
266 -1.0
267 -1.0
268 -1.0
269 -1.0
270 -1.0
271 -1.0
272 -1.0
273 -1.0
274 -1.0
275 -1.0
276 -1.0
277 -1.0
278 -1.0
279 -1.0
280 -1.0
281 -1.0
282 -1.0
283 -1.0
284 -1.0
285 -1.0
286 -1.0
287 -1.0
288 -1.0
289 -1.0
290 -1.0
291 -1.0
292 -1.0
293 -1.0
294 -1.0
295 -1.0
296 -1.0
297 -1.0
298 -1.0
299 -1.0
300 -1.0
-1.0 # default right-hand-side value
150 # number of non-default right-hand-sides
301 0.0
302 0.0
303 0.0
304 0.0
305 0.0
306 0.0
307 0.0
308 0.0
309 0.0
310 0.0
311 0.0
312 0.0
313 0.0
314 0.0
315 0.0
316 0.0
317 0.0
318 0.0
319 0.0
320 0.0
321 0.0
322 0.0
323 0.0
324 0.0
325 0.0
326 0.0
327 0.0
328 0.0
329 0.0
330 0.0
331 0.0
332 0.0
333 0.0
334 0.0
335 0.0
336 0.0
337 0.0
338 0.0
339 0.0
340 0.0
341 0.0
342 0.0
343 0.0
344 0.0
345 0.0
346 0.0
347 0.0
348 0.0
349 0.0
350 0.0
351 0.0
352 0.0
353 0.0
354 0.0
355 0.0
356 0.0
357 0.0
358 0.0
359 0.0
360 0.0
361 0.0
362 0.0
363 0.0
364 0.0
365 0.0
366 0.0
367 0.0
368 0.0
369 0.0
370 0.0
371 0.0
372 0.0
373 0.0
374 0.0
375 0.0
376 0.0
377 0.0
378 0.0
379 0.0
380 0.0
381 0.0
382 0.0
383 0.0
384 0.0
385 0.0
386 0.0
387 0.0
388 0.0
389 0.0
390 0.0
391 0.0
392 0.0
393 0.0
394 0.0
395 0.0
396 0.0
397 0.0
398 0.0
399 0.0
400 0.0
401 0.0
402 0.0
403 0.0
404 0.0
405 0.0
406 0.0
407 0.0
408 0.0
409 0.0
410 0.0
411 0.0
412 0.0
413 0.0
414 0.0
415 0.0
416 0.0
417 0.0
418 0.0
419 0.0
420 0.0
421 0.0
422 0.0
423 0.0
424 0.0
425 0.0
426 0.0
427 0.0
428 0.0
429 0.0
430 0.0
431 0.0
432 0.0
433 0.0
434 0.0
435 0.0
436 0.0
437 0.0
438 0.0
439 0.0
440 0.0
441 0.0
442 0.0
443 0.0
444 0.0
445 0.0
446 0.0
447 0.0
448 0.0
449 0.0
450 0.0
-1.79769313486232E+308 # default variable lower bound value
300 # number of non-default variable lower bounds
1 0.0
2 0.0
3 0.0
4 0.0
5 0.0
6 0.0
7 0.0
8 0.0
9 0.0
10 0.0
11 0.0
12 0.0
13 0.0
14 0.0
15 0.0
16 0.0
17 0.0
18 0.0
19 0.0
20 0.0
21 0.0
22 0.0
23 0.0
24 0.0
25 0.0
26 0.0
27 0.0
28 0.0
29 0.0
30 0.0
31 0.0
32 0.0
33 0.0
34 0.0
35 0.0
36 0.0
37 0.0
38 0.0
39 0.0
40 0.0
41 0.0
42 0.0
43 0.0
44 0.0
45 0.0
46 0.0
47 0.0
48 0.0
49 0.0
50 0.0
51 0.0
52 0.0
53 0.0
54 0.0
55 0.0
56 0.0
57 0.0
58 0.0
59 0.0
60 0.0
61 0.0
62 0.0
63 0.0
64 0.0
65 0.0
66 0.0
67 0.0
68 0.0
69 0.0
70 0.0
71 0.0
72 0.0
73 0.0
74 0.0
75 0.0
76 0.0
77 0.0
78 0.0
79 0.0
80 0.0
81 0.0
82 0.0
83 0.0
84 0.0
85 0.0
86 0.0
87 0.0
88 0.0
89 0.0
90 0.0
91 0.0
92 0.0
93 0.0
94 0.0
95 0.0
96 0.0
97 0.0
98 0.0
99 0.0
100 0.0
101 0.0
102 0.0
103 0.0
104 0.0
105 0.0
106 0.0
107 0.0
108 0.0
109 0.0
110 0.0
111 0.0
112 0.0
113 0.0
114 0.0
115 0.0
116 0.0
117 0.0
118 0.0
119 0.0
120 0.0
121 0.0
122 0.0
123 0.0
124 0.0
125 0.0
126 0.0
127 0.0
128 0.0
129 0.0
130 0.0
131 0.0
132 0.0
133 0.0
134 0.0
135 0.0
136 0.0
137 0.0
138 0.0
139 0.0
140 0.0
141 0.0
142 0.0
143 0.0
144 0.0
145 0.0
146 0.0
147 0.0
148 0.0
149 0.0
150 0.0
156 0.0
157 0.0
158 0.0
159 0.0
160 0.0
161 0.0
162 0.0
163 0.0
164 0.0
165 0.0
166 0.0
167 0.0
168 0.0
169 0.0
170 0.0
171 0.0
172 0.0
173 0.0
174 0.0
175 0.0
176 0.0
177 0.0
178 0.0
179 0.0
180 0.0
181 0.0
182 0.0
183 0.0
184 0.0
185 0.0
186 0.0
187 0.0
188 0.0
189 0.0
190 0.0
191 0.0
192 0.0
193 0.0
194 0.0
195 0.0
196 0.0
197 0.0
198 0.0
199 0.0
200 0.0
201 0.0
202 0.0
203 0.0
204 0.0
205 0.0
206 0.0
207 0.0
208 0.0
209 0.0
210 0.0
211 0.0
212 0.0
213 0.0
214 0.0
215 0.0
216 0.0
217 0.0
218 0.0
219 0.0
220 0.0
221 0.0
222 0.0
223 0.0
224 0.0
225 0.0
226 0.0
227 0.0
228 0.0
229 0.0
230 0.0
231 0.0
232 0.0
233 0.0
234 0.0
235 0.0
236 0.0
237 0.0
238 0.0
239 0.0
240 0.0
241 0.0
242 0.0
243 0.0
244 0.0
245 0.0
246 0.0
247 0.0
248 0.0
249 0.0
250 0.0
251 0.0
252 0.0
253 0.0
254 0.0
255 0.0
256 0.0
257 0.0
258 0.0
259 0.0
260 0.0
261 0.0
262 0.0
263 0.0
264 0.0
265 0.0
266 0.0
267 0.0
268 0.0
269 0.0
270 0.0
271 0.0
272 0.0
273 0.0
274 0.0
275 0.0
276 0.0
277 0.0
278 0.0
279 0.0
280 0.0
281 0.0
282 0.0
283 0.0
284 0.0
285 0.0
286 0.0
287 0.0
288 0.0
289 0.0
290 0.0
291 0.0
292 0.0
293 0.0
294 0.0
295 0.0
296 0.0
297 0.0
298 0.0
299 0.0
300 0.0
301 0.0
302 0.0
303 0.0
304 0.0
305 0.0
1.79769313486232E+308 # default variable upper bound value
150 # number of non-default variable upper bounds
1 1.0
2 1.0
3 1.0
4 1.0
5 1.0
6 1.0
7 1.0
8 1.0
9 1.0
10 1.0
11 1.0
12 1.0
13 1.0
14 1.0
15 1.0
16 1.0
17 1.0
18 1.0
19 1.0
20 1.0
21 1.0
22 1.0
23 1.0
24 1.0
25 1.0
26 1.0
27 1.0
28 1.0
29 1.0
30 1.0
31 1.0
32 1.0
33 1.0
34 1.0
35 1.0
36 1.0
37 1.0
38 1.0
39 1.0
40 1.0
41 1.0
42 1.0
43 1.0
44 1.0
45 1.0
46 1.0
47 1.0
48 1.0
49 1.0
50 1.0
51 1.0
52 1.0
53 1.0
54 1.0
55 1.0
56 1.0
57 1.0
58 1.0
59 1.0
60 1.0
61 1.0
62 1.0
63 1.0
64 1.0
65 1.0
66 1.0
67 1.0
68 1.0
69 1.0
70 1.0
71 1.0
72 1.0
73 1.0
74 1.0
75 1.0
76 1.0
77 1.0
78 1.0
79 1.0
80 1.0
81 1.0
82 1.0
83 1.0
84 1.0
85 1.0
86 1.0
87 1.0
88 1.0
89 1.0
90 1.0
91 1.0
92 1.0
93 1.0
94 1.0
95 1.0
96 1.0
97 1.0
98 1.0
99 1.0
100 1.0
101 1.0
102 1.0
103 1.0
104 1.0
105 1.0
106 1.0
107 1.0
108 1.0
109 1.0
110 1.0
111 1.0
112 1.0
113 1.0
114 1.0
115 1.0
116 1.0
117 1.0
118 1.0
119 1.0
120 1.0
121 1.0
122 1.0
123 1.0
124 1.0
125 1.0
126 1.0
127 1.0
128 1.0
129 1.0
130 1.0
131 1.0
132 1.0
133 1.0
134 1.0
135 1.0
136 1.0
137 1.0
138 1.0
139 1.0
140 1.0
141 1.0
142 1.0
143 1.0
144 1.0
145 1.0
146 1.0
147 1.0
148 1.0
149 1.0
150 1.0
0 # default variable type
150 # number of non-default variable types
1 1
2 1
3 1
4 1
5 1
6 1
7 1
8 1
9 1
10 1
11 1
12 1
13 1
14 1
15 1
16 1
17 1
18 1
19 1
20 1
21 1
22 1
23 1
24 1
25 1
26 1
27 1
28 1
29 1
30 1
31 1
32 1
33 1
34 1
35 1
36 1
37 1
38 1
39 1
40 1
41 1
42 1
43 1
44 1
45 1
46 1
47 1
48 1
49 1
50 1
51 1
52 1
53 1
54 1
55 1
56 1
57 1
58 1
59 1
60 1
61 1
62 1
63 1
64 1
65 1
66 1
67 1
68 1
69 1
70 1
71 1
72 1
73 1
74 1
75 1
76 1
77 1
78 1
79 1
80 1
81 1
82 1
83 1
84 1
85 1
86 1
87 1
88 1
89 1
90 1
91 1
92 1
93 1
94 1
95 1
96 1
97 1
98 1
99 1
100 1
101 1
102 1
103 1
104 1
105 1
106 1
107 1
108 1
109 1
110 1
111 1
112 1
113 1
114 1
115 1
116 1
117 1
118 1
119 1
120 1
121 1
122 1
123 1
124 1
125 1
126 1
127 1
128 1
129 1
130 1
131 1
132 1
133 1
134 1
135 1
136 1
137 1
138 1
139 1
140 1
141 1
142 1
143 1
144 1
145 1
146 1
147 1
148 1
149 1
150 1
0.0 # default variable primal value in starting point
0 # number of non-default variable primal values in starting point
0.0 # default constraint dual value in starting point
0 # number of non-default constraint dual values in starting point
0.0 # default variable bound dual value in starting point
0 # number of non-default variable bound dual values in starting point
0 # number of non-default variable names
0 # number of non-default constraint names
